NAME: rand_1/map3_180
TYPE: TSP
COMMENT: autogenerated using a wonderful map creator
DIMENSION: 210
EDGE_WEIGHT_TYPE: EUC_2D
NODE_COORD_SECTION
1 61.0 17.0
2 35.0 1.0
3 43.0 61.0
4 34.0 3.0
5 1.0 13.0
6 41.0 62.0
7 45.0 63.0
8 33.0 2.0
9 37.0 2.0
10 62.0 13.0
11 63.0 17.0
12 41.0 2.0
13 42.0 63.0
14 49.0 63.0
15 63.0 26.0
16 45.0 62.0
17 37.0 5.0
18 35.0 62.0
19 1.0 15.0
20 1.0 17.0
21 36.0 62.0
22 63.0 24.0
23 40.0 5.0
24 61.0 13.0
25 62.0 18.0
26 61.0 25.0
27 42.0 1.0
28 32.0 4.0
29 43.0 63.0
30 61.0 19.0
31 62.0 21.0
32 35.0 4.0
33 34.0 61.0
34 38.0 61.0
35 44.0 1.0
36 63.0 18.0
37 49.0 62.0
38 46.0 62.0
39 44.0 62.0
40 1.0 9.0
41 39.0 3.0
42 34.0 2.0
43 36.0 2.0
44 62.0 14.0
45 63.0 25.0
46 32.0 2.0
47 63.0 16.0
48 36.0 3.0
49 1.0 11.0
50 61.0 29.0
51 63.0 21.0
52 61.0 11.0
53 61.0 18.0
54 32.0 1.0
55 37.0 3.0
56 61.0 23.0
57 34.0 63.0
58 63.0 22.0
59 61.0 22.0
60 61.0 12.0
61 53.0 5.0
62 4.0 55.0
63 25.0 32.0
64 27.0 4.0
65 37.0 6.0
66 2.0 39.0
67 33.0 54.0
68 37.0 15.0
69 34.0 28.0
70 60.0 10.0
71 57.0 57.0
72 30.0 18.0
73 11.0 14.0
74 63.0 52.0
75 32.0 12.0
76 9.0 26.0
77 52.0 24.0
78 22.0 53.0
79 57.0 20.0
80 49.0 25.0
81 6.0 20.0
82 61.0 54.0
83 10.0 45.0
84 17.0 60.0
85 31.0 22.0
86 1.0 51.0
87 25.0 52.0
88 56.0 30.0
89 15.0 53.0
90 52.0 31.0
91 44.0 31.0
92 61.0 47.0
93 15.0 25.0
94 18.0 30.0
95 53.0 27.0
96 45.0 23.0
97 15.0 46.0
98 40.0 45.0
99 24.0 58.0
100 29.0 54.0
101 31.0 51.0
102 35.0 12.0
103 58.0 44.0
104 60.0 41.0
105 18.0 5.0
106 18.0 60.0
107 52.0 37.0
108 33.0 33.0
109 50.0 49.0
110 16.0 26.0
111 19.0 52.0
112 34.0 16.0
113 11.0 48.0
114 54.0 28.0
115 22.0 23.0
116 51.0 4.0
117 54.0 37.0
118 22.0 32.0
119 7.0 62.0
120 25.0 22.0
121 39.0 14.0
122 2.0 29.0
123 17.0 48.0
124 53.0 13.0
125 33.0 44.0
126 29.0 13.0
127 2.0 38.0
128 42.0 56.0
129 58.0 12.0
130 2.0 56.0
131 9.0 16.0
132 51.0 15.0
133 41.0 23.0
134 18.0 55.0
135 45.0 39.0
136 62.0 55.0
137 25.0 15.0
138 36.0 45.0
139 34.0 57.0
140 30.0 47.0
141 22.0 9.0
142 56.0 11.0
143 58.0 60.0
144 20.0 21.0
145 14.0 5.0
146 30.0 56.0
147 32.0 50.0
148 37.0 16.0
149 57.0 49.0
150 49.0 45.0
151 21.0 47.0
152 33.0 12.0
153 41.0 25.0
154 25.0 8.0
155 17.0 34.0
156 59.0 49.0
157 48.0 12.0
158 31.0 14.0
159 45.0 13.0
160 57.0 42.0
161 48.0 39.0
162 60.0 4.0
163 51.0 1.0
164 27.0 10.0
165 14.0 25.0
166 44.0 14.0
167 11.0 11.0
168 46.0 8.0
169 48.0 5.0
170 11.0 20.0
171 33.0 23.0
172 38.0 13.0
173 19.0 42.0
174 45.0 6.0
175 12.0 3.0
176 58.0 55.0
177 48.0 32.0
178 32.0 45.0
179 5.0 6.0
180 15.0 38.0
181 29.0 37.0
182 44.0 53.0
183 26.0 47.0
184 13.0 59.0
185 2.0 1.0
186 30.0 17.0
187 39.0 50.0
188 56.0 45.0
189 11.0 22.0
190 37.0 41.0
191 22.0 52.0
192 30.0 44.0
193 11.0 40.0
194 17.0 56.0
195 2.0 37.0
196 60.0 54.0
197 35.0 34.0
198 56.0 38.0
199 33.0 18.0
200 63.0 53.0
201 5.0 29.0
202 48.0 9.0
203 40.0 14.0
204 29.0 23.0
205 55.0 5.0
206 60.0 1.0
207 55.0 14.0
208 18.0 29.0
209 25.0 44.0
210 19.0 3.0
211 37.0 18.0
212 11.0 63.0
213 25.0 62.0
214 10.0 9.0
215 54.0 52.0
216 9.0 29.0
217 22.0 1.0
218 13.0 29.0
219 44.0 41.0
220 21.0 21.0
221 16.0 43.0
222 59.0 23.0
223 28.0 44.0
224 33.0 25.0
225 14.0 54.0
226 61.0 41.0
227 49.0 30.0
228 35.0 40.0
229 59.0 7.0
230 45.0 17.0
231 35.0 49.0
232 19.0 62.0
233 31.0 36.0
234 62.0 51.0
235 12.0 32.0
236 54.0 47.0
237 51.0 23.0
238 13.0 6.0
239 12.0 50.0
240 15.0 12.0
START_DEPOT_SECTION
1
2
3
4
5
6
7
8
9
10
11
12
13
14
15
16
17
18
19
20
21
22
23
24
25
26
27
28
29
30
-1
END_DEPOT_SECTION
31
32
33
34
35
36
37
38
39
40
41
42
43
44
45
46
47
48
49
50
51
52
53
54
55
56
57
58
59
60
-1
EOF
